
n_res = 8;
rcap = [22, 23, 22, 22, 1480, 1560, 1562, 1659];
rtype = [1, 1, 1, 1, 2, 2, 2, 2];
n_tasks = 100;
modes =  [{1, 2, 3}, {4, 5, 6}, {7, 8, 9}, {10, 11, 12}, {13, 14, 15}, {16, 17, 18}, {19, 20, 21}, {22, 23, 24}, {25, 26, 27}, {28, 29, 30}, {31, 32, 33}, {34, 35, 36}, {37, 38, 39}, {40, 41, 42}, {43, 44, 45}, {46, 47, 48}, {49, 50, 51}, {52, 53, 54}, {55, 56, 57}, {58, 59, 60}, {61, 62, 63}, {64, 65, 66}, {67, 68, 69}, {70, 71, 72}, {73, 74, 75}, {76, 77, 78}, {79, 80, 81}, {82, 83, 84}, {85, 86, 87}, {88, 89, 90}, {91, 92, 93}, {94, 95, 96}, {97, 98, 99}, {100, 101, 102}, {103, 104, 105}, {106, 107, 108}, {109, 110, 111}, {112, 113, 114}, {115, 116, 117}, {118, 119, 120}, {121, 122, 123}, {124, 125, 126}, {127, 128, 129}, {130, 131, 132}, {133, 134, 135}, {136, 137, 138}, {139, 140, 141}, {142, 143, 144}, {145, 146, 147}, {148, 149, 150}, {151, 152, 153}, {154, 155, 156}, {157, 158, 159}, {160, 161, 162}, {163, 164, 165}, {166, 167, 168}, {169, 170, 171}, {172, 173, 174}, {175, 176, 177}, {178, 179, 180}, {181, 182, 183}, {184, 185, 186}, {187, 188, 189}, {190, 191, 192}, {193, 194, 195}, {196, 197, 198}, {199, 200, 201}, {202, 203, 204}, {205, 206, 207}, {208, 209, 210}, {211, 212, 213}, {214, 215, 216}, {217, 218, 219}, {220, 221, 222}, {223, 224, 225}, {226, 227, 228}, {229, 230, 231}, {232, 233, 234}, {235, 236, 237}, {238, 239, 240}, {241, 242, 243}, {244, 245, 246}, {247, 248, 249}, {250, 251, 252}, {253, 254, 255}, {256, 257, 258}, {259, 260, 261}, {262, 263, 264}, {265, 266, 267}, {268, 269, 270}, {271, 272, 273}, {274, 275, 276}, {277, 278, 279}, {280, 281, 282}, {283, 284, 285}, {286, 287, 288}, {289, 290, 291}, {292, 293, 294}, {295, 296, 297}, {298, 299, 300}];
succ =  [{22, 21, 18, 13, 8}, {26, 18, 13, 7}, {25, 22, 20, 19, 16, 13, 12}, {21, 19, 16, 13}, {25, 22, 14, 12}, {29, 25, 23, 13}, {28, 19, 10}, {24, 19, 16}, {25, 19, 16}, {27, 25, 16}, {29, 23, 19}, {40, 33, 29, 27, 24}, {28, 27, 24}, {35, 30, 29, 28, 27}, {40, 35, 19}, {40, 35, 34, 33, 32, 31, 30, 29}, {40, 35, 34, 33, 32, 31, 30, 29}, {35, 19}, {34, 33, 30, 27}, {34, 33, 30, 27}, {30, 27, 26}, {49, 43, 35, 34, 33, 32, 30}, {49, 40, 35, 34, 31, 30}, {49, 43, 35, 34, 32, 30}, {49, 40, 35, 32, 30}, {49, 43, 41, 38, 37, 36, 33}, {49, 32, 31}, {49, 47, 44, 43, 41, 40, 38, 33}, {49, 43, 41, 39, 38, 37, 36}, {42, 41, 39, 38, 37, 36}, {54, 47, 43, 42, 41, 39, 38, 37}, {60, 54, 52, 51, 42, 41, 38}, {54, 51, 48, 46, 45, 42, 39}, {54, 52, 51, 48, 41, 38}, {60, 51, 47, 45, 42, 41}, {57, 54, 52, 51, 47, 46, 45}, {59, 57, 53, 52, 48, 45, 44}, {68, 57, 46, 45}, {69, 60, 59, 57, 56, 55, 53, 52, 50}, {61, 56, 55, 53, 52, 48}, {68, 58, 50, 46}, {71, 69, 65, 62, 61, 58, 57, 56, 53}, {66, 65, 59, 57, 56, 48}, {69, 68, 65, 62, 56, 55, 50}, {69, 65, 62, 58, 56, 50}, {65, 63, 62, 59, 56, 55, 53}, {80, 71, 69, 68, 65, 64, 63, 58, 53}, {78, 74, 72, 71, 69, 62, 60}, {80, 69, 65, 64, 53}, {75, 72, 71, 70, 67, 66, 64, 61}, {78, 75, 74, 71, 70, 69, 67, 66, 65}, {80, 78, 70, 68, 65, 63, 58}, {78, 77, 75, 74, 72, 67, 66}, {78, 75, 74, 66, 65, 64}, {86, 80, 78, 76, 74, 72, 71}, {80, 78, 75, 67, 64}, {78, 70, 63}, {100, 88, 86, 85, 83, 77, 76, 75, 74, 73}, {86, 85, 83, 80, 75, 74, 71}, {86, 85, 80, 77, 73, 70}, {86, 85, 84, 83, 82, 80, 79, 78, 73}, {100, 75, 64}, {86, 85, 83, 77, 75, 74, 73}, {88, 87, 86, 85, 84, 83, 81, 77}, {100, 88, 85, 84, 83, 82, 79, 73}, {93, 91, 88, 86, 85, 82, 79, 76}, {100, 92, 90, 88, 84, 83, 73}, {92, 91, 88, 87, 84, 79, 77}, {90, 86, 85, 83, 81, 79}, {88, 83, 82, 76}, {88, 87, 79, 77}, {92, 85, 83, 81}, {99, 93, 89, 87, 81}, {97, 92, 81, 79}, {97, 90, 84, 79}, {96, 92, 90, 87, 84}, {99, 97, 89, 82}, {99, 97, 95, 91, 88}, {99, 96, 94, 89}, {100, 97, 96, 95}, {95, 94, 91}, {96, 95, 90}, {93, 89}, {99, 95, 94}, {99, 97, 95}, {94, 92}, {97, 95}, {96, 94}, {98}, {94}, {96}, {95}, {94}, {}, {}, {}, {}, {}, {}, {}];
n_opt = 300;
dur = [7, 10, 22, 10, 15, 26, 12, 14, 30, 9, 16, 26, 2, 12, 24, 3, 8, 23, 7, 14, 26, 4, 10, 11, 1, 18, 21, 11, 12, 16, 6, 17, 23, 5, 20, 24, 12, 25, 26, 7, 28, 29, 8, 9, 29, 10, 20, 21, 5, 11, 24, 8, 9, 24, 8, 9, 16, 5, 9, 15, 1, 18, 21, 2, 6, 14, 1, 15, 23, 9, 16, 27, 1, 4, 11, 1, 2, 18, 3, 24, 29, 10, 19, 23, 10, 16, 22, 8, 12, 20, 11, 22, 29, 8, 12, 29, 3, 18, 22, 10, 20, 28, 1, 7, 22, 3, 4, 5, 14, 27, 30, 12, 19, 21, 21, 24, 29, 4, 5, 18, 1, 7, 18, 1, 12, 27, 5, 14, 20, 11, 22, 27, 2, 19, 29, 3, 6, 19, 12, 16, 23, 4, 16, 19, 1, 12, 20, 9, 13, 28, 15, 16, 19, 4, 6, 28, 11, 25, 29, 8, 10, 20, 14, 16, 20, 21, 28, 29, 1, 8, 27, 11, 17, 18, 26, 28, 29, 3, 20, 25, 9, 10, 23, 18, 20, 23, 14, 15, 16, 13, 16, 20, 7, 20, 26, 2, 12, 20, 11, 13, 26, 4, 11, 13, 2, 27, 30, 8, 16, 19, 2, 14, 23, 10, 11, 28, 26, 29, 30, 8, 11, 26, 8, 14, 29, 14, 23, 28, 8, 20, 21, 7, 15, 16, 3, 13, 20, 26, 28, 30, 15, 20, 26, 16, 18, 20, 1, 14, 29, 3, 24, 27, 5, 13, 24, 6, 15, 27, 18, 27, 30, 3, 11, 22, 3, 24, 27, 1, 18, 22, 11, 24, 30, 7, 23, 29, 7, 13, 15, 1, 12, 24, 6, 27, 28, 1, 2, 19, 8, 13, 15, 11, 19, 28, 7, 17, 21, 16, 22, 29];
rreq = [|4, 4, 4, 4, 4, 4, 2, 2, 2, 4, 3, 3, 4, 4, 4, 2, 1, 1, 2, 1, 1, 4, 4, 4, 2, 2, 2, 3, 2, 1, 4, 2, 2, 2, 2, 1, 3, 2, 2, 2, 1, 1, 5, 5, 5, 4, 4, 3, 5, 2, 2, 2, 1, 1, 5, 4, 4, 4, 4, 4, 4, 3, 3, 2, 1, 1, 3, 2, 1, 3, 3, 3, 3, 3, 3, 3, 1, 1, 5, 5, 5, 5, 4, 4, 5, 4, 3, 5, 4, 3, 2, 1, 1, 1, 1, 1, 5, 4, 4, 4, 3, 3, 3, 3, 3, 3, 3, 1, 2, 2, 2, 4, 3, 3, 5, 4, 3, 2, 2, 2, 5, 3, 3, 3, 3, 3, 4, 3, 2, 5, 2, 1, 3, 2, 1, 4, 2, 2, 5, 5, 5, 4, 4, 4, 4, 3, 3, 4, 3, 2, 2, 1, 1, 3, 3, 3, 4, 3, 3, 2, 2, 2, 2, 2, 2, 3, 1, 1, 4, 3, 3, 3, 2, 2, 4, 3, 3, 3, 2, 2, 5, 5, 5, 3, 3, 2, 3, 2, 1, 3, 2, 2, 5, 3, 2, 5, 2, 2, 3, 3, 3, 5, 4, 4, 4, 2, 1, 4, 4, 3, 5, 5, 5, 4, 3, 3, 3, 3, 3, 5, 4, 4, 1, 1, 1, 3, 3, 3, 3, 2, 2, 3, 2, 2, 2, 1, 1, 1, 1, 1, 3, 1, 1, 3, 3, 3, 4, 4, 4, 5, 4, 3, 5, 3, 3, 1, 1, 1, 3, 3, 2, 3, 2, 2, 2, 2, 2, 4, 3, 3, 3, 3, 3, 3, 2, 2, 3, 2, 2, 4, 4, 4, 5, 3, 2, 5, 3, 3, 4, 2, 1, 2, 1, 1, 4, 3, 2, 5, 4, 3
 |4, 3, 1, 3, 3, 2, 5, 5, 5, 3, 2, 2, 5, 5, 5, 4, 4, 4, 5, 4, 3, 4, 3, 3, 4, 4, 3, 4, 2, 2, 4, 3, 3, 3, 2, 2, 4, 3, 2, 5, 3, 2, 3, 2, 2, 1, 1, 1, 3, 3, 3, 3, 2, 1, 1, 1, 1, 4, 3, 2, 3, 2, 1, 4, 4, 4, 1, 1, 1, 4, 3, 2, 5, 3, 2, 4, 2, 2, 4, 4, 4, 3, 2, 1, 1, 1, 1, 3, 2, 2, 4, 2, 2, 2, 2, 2, 4, 4, 3, 5, 4, 4, 3, 3, 2, 4, 3, 2, 3, 1, 1, 1, 1, 1, 2, 2, 1, 4, 2, 1, 5, 5, 5, 3, 2, 2, 3, 1, 1, 4, 3, 3, 1, 1, 1, 1, 1, 1, 2, 1, 1, 2, 2, 2, 4, 3, 3, 4, 4, 4, 3, 3, 2, 4, 4, 4, 4, 4, 4, 3, 2, 1, 4, 2, 2, 4, 3, 2, 5, 4, 2, 5, 5, 5, 5, 4, 2, 5, 4, 4, 4, 4, 4, 4, 3, 3, 4, 3, 3, 2, 1, 1, 2, 2, 1, 1, 1, 1, 4, 4, 2, 3, 3, 3, 2, 1, 1, 4, 3, 3, 2, 1, 1, 3, 3, 1, 1, 1, 1, 4, 2, 2, 4, 3, 1, 3, 3, 2, 2, 1, 1, 4, 2, 1, 4, 4, 3, 4, 4, 2, 4, 4, 4, 4, 4, 2, 5, 3, 2, 5, 4, 3, 1, 1, 1, 4, 4, 3, 4, 2, 2, 2, 1, 1, 3, 1, 1, 2, 2, 2, 3, 2, 1, 3, 3, 2, 2, 2, 2, 4, 4, 3, 5, 4, 3, 4, 2, 1, 5, 5, 5, 5, 3, 3, 3, 2, 1, 1, 1, 1
 |2, 1, 1, 4, 2, 1, 2, 2, 2, 2, 1, 1, 3, 2, 2, 4, 3, 3, 2, 2, 2, 4, 4, 2, 4, 4, 4, 3, 2, 2, 2, 1, 1, 3, 2, 1, 4, 2, 2, 4, 2, 2, 2, 2, 2, 5, 4, 3, 2, 1, 1, 2, 2, 2, 3, 2, 2, 4, 3, 3, 3, 2, 2, 5, 5, 5, 5, 5, 5, 5, 5, 5, 4, 3, 3, 5, 3, 3, 4, 2, 1, 3, 2, 1, 4, 3, 2, 1, 1, 1, 3, 2, 1, 2, 2, 2, 3, 3, 3, 1, 1, 1, 3, 3, 3, 1, 1, 1, 2, 1, 1, 3, 2, 1, 2, 2, 2, 4, 4, 4, 3, 1, 1, 2, 1, 1, 4, 4, 4, 2, 1, 1, 2, 1, 1, 4, 3, 3, 5, 5, 5, 2, 2, 1, 4, 4, 4, 3, 3, 2, 4, 3, 3, 3, 2, 2, 4, 3, 3, 3, 3, 2, 2, 1, 1, 3, 2, 1, 1, 1, 1, 4, 4, 2, 2, 2, 2, 4, 3, 1, 3, 2, 2, 4, 4, 4, 4, 4, 3, 4, 3, 3, 5, 4, 4, 5, 4, 2, 5, 5, 5, 5, 5, 5, 3, 2, 1, 5, 4, 4, 2, 2, 2, 3, 2, 1, 3, 2, 2, 5, 3, 1, 5, 4, 3, 5, 5, 5, 1, 1, 1, 1, 1, 1, 5, 4, 4, 5, 5, 5, 2, 2, 2, 1, 1, 1, 4, 2, 1, 3, 3, 2, 4, 3, 3, 4, 4, 3, 1, 1, 1, 5, 5, 5, 4, 4, 4, 3, 3, 3, 1, 1, 1, 4, 3, 2, 3, 3, 3, 3, 3, 3, 4, 3, 3, 3, 3, 3, 3, 2, 2, 3, 3, 3, 3, 3, 3, 4, 3, 2
 |3, 3, 2, 3, 2, 2, 1, 1, 1, 3, 3, 3, 4, 3, 3, 2, 1, 1, 3, 2, 2, 4, 4, 4, 5, 4, 2, 5, 4, 4, 3, 1, 1, 4, 4, 2, 5, 4, 2, 4, 3, 3, 2, 1, 1, 3, 3, 3, 2, 1, 1, 4, 3, 3, 3, 3, 1, 4, 4, 4, 3, 3, 1, 3, 2, 1, 4, 4, 3, 5, 4, 3, 3, 3, 3, 2, 2, 2, 2, 1, 1, 1, 1, 1, 2, 2, 2, 4, 4, 3, 4, 3, 3, 4, 4, 2, 4, 3, 3, 4, 2, 2, 2, 2, 1, 5, 4, 4, 5, 3, 2, 2, 2, 2, 5, 3, 3, 4, 4, 3, 3, 2, 2, 2, 1, 1, 3, 2, 1, 4, 4, 4, 4, 4, 4, 3, 3, 3, 1, 1, 1, 4, 3, 2, 4, 2, 2, 3, 3, 1, 2, 2, 2, 5, 3, 3, 4, 4, 3, 4, 4, 3, 4, 3, 2, 5, 5, 5, 3, 2, 2, 4, 3, 2, 3, 3, 3, 4, 4, 4, 4, 3, 3, 1, 1, 1, 5, 4, 4, 2, 2, 1, 4, 3, 3, 5, 5, 5, 4, 4, 4, 4, 2, 2, 3, 3, 2, 4, 4, 3, 5, 5, 5, 3, 2, 2, 5, 3, 2, 4, 3, 2, 5, 5, 5, 4, 4, 4, 4, 3, 2, 5, 4, 3, 1, 1, 1, 5, 5, 5, 4, 3, 3, 5, 5, 5, 5, 4, 3, 4, 3, 3, 1, 1, 1, 2, 2, 1, 4, 3, 3, 4, 3, 3, 4, 3, 3, 3, 3, 3, 2, 1, 1, 5, 3, 1, 5, 4, 4, 3, 2, 2, 3, 2, 1, 1, 1, 1, 4, 2, 1, 1, 1, 1, 5, 4, 4, 2, 2, 2
 |6, 5, 5, 26, 16, 14, 24, 17, 11, 13, 5, 4, 19, 10, 4, 23, 17, 6, 21, 17, 8, 21, 20, 19, 27, 21, 18, 22, 10, 7, 25, 21, 20, 12, 7, 3, 10, 6, 4, 26, 18, 10, 22, 20, 15, 15, 10, 8, 22, 11, 5, 14, 7, 2, 14, 10, 8, 23, 17, 10, 24, 18, 14, 15, 11, 7, 8, 7, 6, 15, 14, 12, 23, 15, 12, 20, 18, 17, 10, 4, 3, 22, 14, 10, 22, 12, 8, 19, 18, 18, 26, 20, 18, 12, 9, 4, 12, 11, 8, 22, 17, 8, 23, 22, 21, 15, 10, 9, 23, 14, 10, 29, 17, 10, 22, 16, 8, 17, 15, 11, 20, 18, 17, 22, 21, 19, 8, 7, 4, 14, 12, 4, 16, 14, 14, 19, 12, 11, 22, 16, 15, 28, 24, 20, 21, 13, 6, 15, 14, 7, 22, 13, 8, 23, 19, 12, 18, 18, 9, 13, 13, 11, 28, 20, 12, 25, 18, 10, 28, 27, 27, 10, 8, 2, 7, 6, 5, 26, 17, 12, 19, 16, 14, 23, 15, 10, 16, 9, 8, 16, 13, 12, 28, 23, 11, 3, 2, 1, 22, 13, 10, 25, 21, 17, 5, 5, 5, 18, 13, 12, 14, 8, 4, 14, 13, 4, 29, 26, 23, 20, 18, 18, 18, 16, 15, 14, 13, 13, 26, 23, 20, 21, 19, 16, 21, 17, 12, 21, 19, 18, 19, 17, 12, 21, 13, 9, 14, 14, 14, 26, 18, 17, 10, 9, 6, 27, 22, 16, 12, 6, 2, 9, 8, 8, 25, 18, 18, 22, 18, 17, 21, 20, 18, 20, 15, 11, 16, 10, 6, 10, 6, 3, 21, 15, 10, 10, 8, 4, 28, 14, 9, 25, 15, 5, 12, 8, 5, 30, 10, 8
 |20, 19, 19, 16, 15, 13, 20, 12, 8, 13, 7, 4, 26, 25, 20, 18, 10, 8, 21, 19, 16, 25, 20, 17, 28, 28, 28, 13, 10, 7, 8, 7, 6, 27, 16, 10, 23, 21, 18, 15, 12, 10, 28, 23, 19, 17, 16, 13, 17, 10, 3, 21, 17, 13, 16, 15, 13, 11, 9, 6, 28, 19, 11, 16, 12, 11, 29, 24, 22, 18, 13, 8, 24, 20, 17, 12, 11, 11, 14, 8, 7, 7, 5, 2, 19, 19, 18, 20, 14, 8, 22, 22, 21, 18, 17, 17, 13, 13, 11, 26, 18, 13, 7, 5, 4, 19, 16, 9, 21, 18, 16, 23, 19, 17, 19, 9, 3, 27, 22, 19, 28, 27, 27, 20, 20, 20, 11, 9, 8, 28, 26, 24, 26, 25, 25, 18, 14, 12, 9, 5, 2, 18, 11, 1, 16, 14, 9, 28, 22, 19, 14, 14, 13, 28, 22, 11, 11, 6, 4, 12, 11, 11, 6, 6, 6, 11, 11, 11, 19, 19, 19, 28, 25, 24, 19, 19, 17, 13, 11, 11, 8, 8, 8, 11, 9, 6, 22, 21, 20, 11, 7, 6, 12, 9, 7, 23, 17, 8, 13, 12, 9, 25, 23, 19, 9, 9, 3, 13, 8, 8, 29, 25, 23, 28, 24, 22, 23, 17, 15, 14, 8, 7, 12, 10, 10, 16, 12, 8, 13, 7, 3, 21, 20, 18, 3, 3, 3, 19, 18, 17, 26, 21, 19, 11, 10, 10, 27, 24, 21, 24, 15, 14, 8, 6, 3, 27, 23, 22, 22, 21, 19, 27, 23, 19, 26, 16, 10, 28, 27, 25, 19, 17, 15, 19, 18, 18, 5, 2, 1, 19, 16, 14, 15, 8, 7, 13, 8, 7, 21, 20, 20, 24, 19, 17, 15, 13, 11, 21, 10, 8
 |20, 17, 8, 14, 11, 11, 25, 23, 13, 19, 10, 8, 30, 26, 22, 15, 14, 14, 7, 4, 3, 18, 16, 15, 25, 20, 17, 10, 8, 8, 30, 24, 19, 24, 20, 14, 19, 15, 11, 13, 13, 13, 27, 19, 9, 19, 13, 8, 23, 22, 9, 10, 8, 5, 12, 12, 12, 24, 22, 17, 11, 8, 3, 14, 7, 5, 20, 17, 13, 19, 12, 1, 27, 25, 24, 20, 13, 8, 13, 10, 9, 28, 17, 15, 27, 25, 25, 28, 18, 14, 11, 11, 11, 22, 18, 9, 25, 22, 21, 30, 27, 25, 4, 4, 2, 5, 4, 4, 22, 16, 7, 22, 19, 16, 26, 18, 4, 24, 18, 12, 26, 24, 23, 15, 15, 14, 23, 16, 13, 22, 22, 20, 24, 20, 12, 4, 2, 1, 11, 10, 8, 26, 15, 10, 16, 15, 12, 6, 5, 4, 24, 18, 16, 9, 9, 9, 18, 13, 4, 11, 10, 5, 16, 7, 5, 28, 14, 14, 5, 4, 3, 23, 19, 16, 23, 16, 16, 20, 18, 10, 21, 18, 9, 9, 8, 5, 19, 15, 13, 4, 4, 3, 18, 17, 14, 15, 10, 8, 18, 12, 8, 22, 21, 15, 22, 19, 18, 20, 19, 14, 19, 18, 13, 27, 25, 24, 21, 20, 17, 23, 23, 21, 3, 2, 2, 19, 17, 17, 22, 15, 11, 20, 14, 12, 19, 16, 11, 18, 11, 9, 18, 17, 15, 20, 15, 11, 12, 10, 8, 22, 19, 18, 28, 22, 19, 10, 9, 9, 17, 15, 15, 28, 27, 26, 22, 17, 15, 17, 13, 9, 27, 26, 25, 19, 11, 7, 9, 9, 7, 19, 16, 7, 23, 19, 16, 25, 25, 24, 18, 17, 15, 21, 15, 9, 28, 25, 21, 29, 25, 23
 |23, 23, 20, 22, 21, 21, 21, 19, 11, 20, 20, 17, 26, 26, 26, 25, 19, 9, 21, 18, 14, 12, 10, 6, 13, 13, 11, 29, 29, 29, 14, 12, 11, 6, 5, 5, 16, 15, 13, 22, 21, 19, 19, 12, 4, 24, 23, 17, 28, 27, 23, 18, 18, 18, 27, 25, 25, 29, 29, 29, 21, 20, 19, 11, 11, 11, 13, 13, 12, 25, 19, 10, 12, 11, 11, 24, 15, 1, 27, 17, 16, 18, 18, 18, 20, 10, 9, 24, 13, 4, 15, 6, 6, 29, 21, 19, 27, 24, 21, 9, 8, 8, 26, 23, 20, 26, 23, 22, 24, 10, 4, 12, 11, 9, 18, 17, 9, 13, 10, 7, 26, 14, 5, 18, 12, 9, 14, 9, 9, 29, 28, 27, 8, 7, 6, 15, 15, 13, 23, 17, 13, 28, 24, 24, 25, 18, 12, 23, 22, 20, 9, 7, 6, 17, 16, 15, 22, 21, 20, 25, 25, 22, 8, 8, 6, 21, 15, 12, 12, 11, 10, 23, 21, 20, 26, 22, 19, 29, 25, 23, 26, 13, 5, 9, 9, 9, 25, 23, 21, 18, 17, 16, 23, 18, 16, 27, 23, 20, 26, 26, 24, 17, 16, 5, 20, 16, 7, 10, 10, 9, 15, 10, 4, 22, 11, 10, 24, 22, 15, 27, 22, 20, 20, 17, 16, 28, 28, 27, 5, 5, 3, 19, 19, 19, 18, 16, 11, 16, 12, 10, 23, 16, 12, 16, 9, 8, 15, 15, 15, 23, 20, 19, 12, 12, 12, 6, 6, 6, 28, 18, 14, 20, 17, 14, 13, 10, 9, 16, 10, 8, 23, 20, 19, 19, 16, 6, 18, 10, 5, 27, 26, 25, 23, 20, 19, 22, 11, 10, 14, 13, 7, 16, 15, 2, 18, 16, 11, 16, 11, 2|];